data/results/2026_03_23_16_32_19_set_ds_1_ds_1_s007_g003_max.sol
# Objective value = 20
c_n9n12n16 3
c_n1n11n13n15 4
c_n4n12n16 3
c_n11n13n15 3
c_n1n13n15 2
c_n1n11n15 2
c_n1n11n13 3
y_n0n1 1
y_n1n2 1
y_n0n2 1
y_n1n3 1
y_n0n3 1
y_n1n4 0
y_n0n4 0
y_n1n5 1
y_n0n5 1
y_n1n6 1
y_n0n6 1
y_n1n7 1
y_n0n7 1
y_n1n8 1
y_n0n8 1
y_n1n9 0
y_n0n9 0
y_n1n10 0
y_n0n10 1
y_n1n11 0
y_n0n11 1
y_n1n12 0
y_n0n12 0
y_n1n13 0
y_n0n13 1
y_n1n14 0
y_n0n14 0
y_n1n15 0
y_n0n15 1
y_n1n16 0
y_n0n16 0
y_n2n3 0
y_n2n4 0
y_n2n5 0
y_n2n6 0
y_n2n7 0
y_n2n8 0
y_n2n9 0
y_n2n10 0
y_n2n11 0
y_n2n12 0
y_n2n13 0
y_n2n14 0
y_n2n15 0
y_n2n16 0
y_n3n4 0
y_n3n5 1
y_n3n6 1
y_n3n7 1
y_n3n8 1
y_n3n9 0
y_n3n10 0
y_n3n11 0
y_n3n12 0
y_n3n13 0
y_n3n14 0
y_n3n15 0
y_n3n16 0
y_n4n5 1
y_n4n6 1
y_n4n7 1
y_n4n8 1
y_n4n9 1
y_n4n10 1
y_n4n11 1
y_n4n12 1
y_n4n13 1
y_n4n14 1
y_n4n15 1
y_n4n16 1
y_n5n6 1
y_n5n7 0
y_n5n8 0
y_n5n9 0
y_n5n10 0
y_n5n11 0
y_n5n12 0
y_n5n13 0
y_n5n14 0
y_n5n15 0
y_n5n16 0
y_n6n7 0
y_n6n8 0
y_n6n9 0
y_n6n10 0
y_n6n11 0
y_n6n12 0
y_n6n13 0
y_n6n14 0
y_n6n15 0
y_n6n16 0
y_n7n8 0
y_n7n9 0
y_n7n10 0
y_n7n11 0
y_n7n12 0
y_n7n13 0
y_n7n14 0
y_n7n15 0
y_n7n16 0
y_n8n9 0
y_n8n10 0
y_n8n11 0
y_n8n12 0
y_n8n13 0
y_n8n14 0
y_n8n15 0
y_n8n16 0
y_n9n10 1
y_n9n11 1
y_n9n12 0
y_n9n13 1
y_n9n14 1
y_n9n15 1
y_n9n16 0
y_n10n11 1
y_n10n12 0
y_n10n13 1
y_n10n14 0
y_n10n15 1
y_n10n16 0
y_n11n12 0
y_n11n13 0
y_n11n14 0
y_n11n15 0
y_n11n16 0
y_n12n13 1
y_n12n14 1
y_n12n15 1
y_n12n16 1
y_n13n14 0
y_n13n15 0
y_n13n16 0
y_n14n15 1
y_n14n16 0
y_n15n16 0
pos_n0 5
pos_n1 10
pos_n2 16
pos_n3 11
pos_n4 0
pos_n5 14
pos_n6 15
pos_n7 13
pos_n8 12
pos_n9 3
pos_n10 6
pos_n11 9
pos_n12 1
pos_n13 8
pos_n14 4
pos_n15 7
pos_n16 2
z_n13n15 1
z_n11n15 0
z_n11n13 1
z_n5n13 0
z_n11n12 0
z_n11n16 0
z_n12n16 1
z_n2n7 0
z_n5n8 0
z_n7n14 0
z_n10n12 0
z_n10n16 0
z_n3n9 0
z_n3n11 0
z_n9n11 0
z_n1n15 0
z_n1n13 0
z_n0n1 0
z_n1n4 0
z_n1n10 0
z_n0n15 0
z_n4n15 0
z_n10n15 0
z_n0n13 0
z_n4n13 0
z_n10n13 0
z_n0n4 0
z_n0n10 0
z_n4n10 0
z_n4n9 0
z_n4n16 0
z_n9n16 1
z_n1n11 1
z_n1n2 0
z_n2n15 0
z_n2n11 0
z_n1n16 0
z_n13n16 0
z_n4n6 0
z_n4n12 1
z_n6n9 0
z_n6n12 0
z_n6n15 0
z_n9n12 0
z_n9n15 0
z_n12n15 0
