logs/2026_03_23_16_32_19_set_ds_1_ds_1_s007_g003_max.log
[2026-03-23T16:32:19.571Z] Pipeline "set_ds_1_ds_1_s007_g003" → 2026_03_23_16_32_19_set_ds_1_ds_1_s007_g003_max.sol
Set parameter WLSAccessID
Set parameter WLSSecret
Set parameter LicenseID to value 2792458
Set parameter LogFile to value "gurobi.log"
Using license file /root/gurobi.lic
Academic license 2792458 - for non-commercial use only - registered to an___@studenti.unipg.it

Gurobi Optimizer version 13.0.1 build v13.0.1rc0 (linux64 - "Ubuntu 24.04.4 LTS")
Copyright (c) 2026, Gurobi Optimization, LLC

Warning: Duplicate section found (read 'binary') - Is a variable name equal to an LP file format keyword?
Warning: Duplicate section found (read 'binary') - Is a variable name equal to an LP file format keyword?
Warning: Duplicate section found (read 'binary') - Is a variable name equal to an LP file format keyword?
Warning: Duplicate section found (read 'binary') - Is a variable name equal to an LP file format keyword?
Warning: Duplicate section found (read 'binary') - Is a variable name equal to an LP file format keyword?
Warning: Duplicate section found (read 'binary') - Is a variable name equal to an LP file format keyword?
Warning: Duplicate section found (read 'binary') - Is a variable name equal to an LP file format keyword?
Warning: Duplicate section found (read 'binary') - Is a variable name equal to an LP file format keyword?
Warning: Duplicate section found (read 'binary') - Is a variable name equal to an LP file format keyword?
Warning: Duplicate section found (read 'binary') - Is a variable name equal to an LP file format keyword?
Warning: Further warnings of this type will be omitted.
Read LP format model from file /root/bgw/data/uploads/2026_03_23_16_32_19_set_ds_1_ds_1_s007_g003_max.lp
Reading time = 0.00 seconds
: 1608 rows, 206 columns, 4848 nonzeros

Using Gurobi shared library /opt/gurobi1301/linux64/lib/libgurobi.so.13.0.1

CPU model: AMD EPYC-Genoa Processor, instruction set [SSE2|AVX|AVX2|AVX512]
Thread count: 16 physical cores, 16 logical processors, using up to 16 threads

Academic license 2792458 - for non-commercial use only - registered to an___@studenti.unipg.it
Optimize a model with 1608 rows, 206 columns and 4848 nonzeros (Max)
Model fingerprint: 0x8ea0a12f
Model has 7 linear objective coefficients
Variable types: 24 continuous, 182 integer (182 binary)
Coefficient statistics:
  Matrix range     [1e+00, 2e+01]
  Objective range  [1e+00, 1e+00]
  Bounds range     [1e+00, 1e+00]
  RHS range        [1e+00, 2e+01]

Found heuristic solution: objective 7.0000000
Presolve removed 218 rows and 51 columns
Presolve time: 0.00s
Presolved: 1390 rows, 155 columns, 4282 nonzeros
Variable types: 0 continuous, 155 integer (147 binary)

Root relaxation: objective 3.100000e+01, 152 iterations, 0.00 seconds (0.00 work units)

    Nodes    |    Current Node    |     Objective Bounds      |     Work
 Expl Unexpl |  Obj  Depth IntInf | Incumbent    BestBd   Gap | It/Node Time

     0     0   31.00000    0   10    7.00000   31.00000   343%     -    0s
H    0     0                      19.0000000   31.00000  63.2%     -    0s
H    0     0                      20.0000000   31.00000  55.0%     -    0s
     0     0   31.00000    0   19   20.00000   31.00000  55.0%     -    0s
     0     0   31.00000    0   20   20.00000   31.00000  55.0%     -    0s
     0     0   31.00000    0   12   20.00000   31.00000  55.0%     -    0s
     0     0   28.00000    0   16   20.00000   28.00000  40.0%     -    0s
     0     0   28.00000    0   12   20.00000   28.00000  40.0%     -    0s
     0     0   28.00000    0   16   20.00000   28.00000  40.0%     -    0s
     0     0   28.00000    0   11   20.00000   28.00000  40.0%     -    0s
     0     0   28.00000    0   10   20.00000   28.00000  40.0%     -    0s
     0     0   28.00000    0   11   20.00000   28.00000  40.0%     -    0s
     0     0   28.00000    0   11   20.00000   28.00000  40.0%     -    0s
     0     0   27.60000    0   11   20.00000   27.60000  38.0%     -    0s
     0     0   27.60000    0   11   20.00000   27.60000  38.0%     -    0s
     0     0   27.60000    0   11   20.00000   27.60000  38.0%     -    0s
     0     0   27.60000    0   10   20.00000   27.60000  38.0%     -    0s
     0     2   27.60000    0   10   20.00000   27.60000  38.0%     -    0s

Cutting planes:
  Gomory: 2
  Cover: 7
  Inf proof: 32
  Zero half: 1
  Mod-K: 2

Explored 1915 nodes (64701 simplex iterations) in 0.47 seconds (0.49 work units)
Thread count was 16 (of 16 available processors)

Solution count 3: 20 19 7 

Optimal solution found (tolerance 1.00e-04)
Best objective 2.000000000000e+01, best bound 2.000000000000e+01, gap 0.0000%

Wrote result file '/root/bgw/data/results/2026_03_23_16_32_19_set_ds_1_ds_1_s007_g003_max.sol'

